(set-info :source |printed by MathSAT|)
(declare-fun H () Int)
(declare-fun .y.21 () Int)
(declare-fun A_0 () Int)
(declare-fun .y.22 () Int)
(declare-fun B_0 () Int)
(declare-fun .y.23 () Int)
(declare-fun .y.17 () (Array Int Int))
(declare-fun .y.24 () (Array Int Int))
(declare-fun C_0 () Int)
(declare-fun .y.25 () Int)
(declare-fun I () Int)
(declare-fun .y.26 () Int)
(declare-fun .y.18 () Int)
(declare-fun .y.27 () Int)
(declare-fun G_0 () (Array Int Int))
(declare-fun .y.28 () (Array Int Int))
(declare-fun J () Int)
(declare-fun .y.29 () Int)
(declare-fun D_0 () Int)
(declare-fun .y.30 () Int)
(declare-fun E_0 () Int)
(declare-fun .y.31 () Int)
(declare-fun F_0 () Int)
(declare-fun .y.32 () Int)
(declare-fun L () Int)
(declare-fun .y.33 () Int)
(declare-fun K () (Array Int Int))
(declare-fun .y.34 () (Array Int Int))
(declare-fun .loc.19 () Bool)
(declare-fun .loc.35 () Bool)
(declare-fun .loc.20 () Bool)
(declare-fun .loc.36 () Bool)
(declare-fun A () Int)
(define-fun .def_8 () Int (! H :next |.y.21|))
(define-fun .def_10 () Int (! A_0 :next |.y.22|))
(define-fun .def_12 () Int (! B_0 :next |.y.23|))
(define-fun .def_14 () (Array Int Int) (! .y.17 :next |.y.24|))
(define-fun .def_16 () Int (! C_0 :next |.y.25|))
(define-fun .def_18 () Int (! I :next |.y.26|))
(define-fun .def_20 () Int (! .y.18 :next |.y.27|))
(define-fun .def_22 () (Array Int Int) (! G_0 :next |.y.28|))
(define-fun .def_24 () Int (! J :next |.y.29|))
(define-fun .def_26 () Int (! D_0 :next |.y.30|))
(define-fun .def_28 () Int (! E_0 :next |.y.31|))
(define-fun .def_30 () Int (! F_0 :next |.y.32|))
(define-fun .def_32 () Int (! L :next |.y.33|))
(define-fun .def_34 () (Array Int Int) (! K :next |.y.34|))
(define-fun .def_36 () Bool (! .loc.19 :next |.loc.35|))
(define-fun .def_38 () Bool (! .loc.20 :next |.loc.36|))
(define-fun .def_253 () Int (! A :next |.xiv.1|))
(define-fun .def_247 () Bool (not .def_38))
(define-fun .def_97 () Bool (not .def_36))
(define-fun .def_264 () Bool (and .def_97 .def_247))
(define-fun .def_258 () Bool (= .def_16 0))
(define-fun .def_257 () Bool (= .def_8 0))
(define-fun .def_259 () Bool (and .def_257 .def_258))
(define-fun .def_255 () Int (select .def_14 .def_253))
(define-fun .def_254 () Int (select .def_22 .def_253))
(define-fun .def_256 () Bool (= .def_254 .def_255))
(define-fun .def_260 () Bool (and .def_256 .def_259))
(define-fun .def_251 () Bool (<= .def_10 0))
(define-fun .def_252 () Bool (not .def_251))
(define-fun .def_261 () Bool (and .def_252 .def_260))
(define-fun .def_250 () Bool (= .def_12 .def_20))
(define-fun .def_262 () Bool (and .def_250 .def_261))
(define-fun .def_249 () Bool (= .def_10 .def_18))
(define-fun .def_263 () Bool (and .def_249 .def_262))
(define-fun .def_265 () Bool (! (and .def_263 .def_264) :init true))
(define-fun .def_83 () Bool (= .def_18 0))
(define-fun .def_219 () Bool (not .def_83))
(define-fun .def_44 () Int (select .def_34 .def_32))
(define-fun .def_46 () Bool (= .def_24 .def_44))
(define-fun .def_47 () Bool (not .def_46))
(define-fun .def_45 () Bool (= .def_44 0))
(define-fun .def_48 () Bool (and .def_45 .def_47))
(define-fun .def_231 () Bool (and .def_48 .def_219))
(define-fun .def_230 () Bool (and .def_46 .def_83))
(define-fun .def_232 () Bool (or .def_230 .def_231))
(define-fun .def_40 () Int (select .def_22 .def_18))
(define-fun .def_41 () Bool (= .def_8 .def_40))
(define-fun .def_233 () Bool (and .def_41 .def_232))
(define-fun .def_42 () Bool (not .def_41))
(define-fun .def_228 () Bool (and .def_42 .def_46))
(define-fun .def_53 () Bool (= .def_40 0))
(define-fun .def_229 () Bool (and .def_53 .def_228))
(define-fun .def_234 () Bool (or .def_229 .def_233))
(define-fun .def_224 () Bool (= .def_10 .def_26))
(define-fun .def_225 () Bool (not .def_224))
(define-fun .def_222 () Bool (= .def_22 .def_34))
(define-fun .def_223 () Bool (not .def_222))
(define-fun .def_226 () Bool (or .def_223 .def_225))
(define-fun .def_220 () Bool (and .def_46 .def_219))
(define-fun .def_221 () Bool (and .def_41 .def_220))
(define-fun .def_227 () Bool (and .def_221 .def_226))
(define-fun .def_235 () Bool (or .def_227 .def_234))
(define-fun .def_51 () Bool (not .loc.35))
(define-fun .def_136 () Bool (and .loc.36 .def_51))
(define-fun .def_236 () Bool (and .def_136 .def_235))
(define-fun .def_202 () Bool (and .def_42 .def_47))
(define-fun .def_149 () Bool (not .def_45))
(define-fun .def_203 () Bool (and .def_149 .def_202))
(define-fun .def_204 () Bool (and .loc.35 .def_203))
(define-fun .def_55 () Bool (not .loc.36))
(define-fun .def_205 () Bool (and .def_55 .def_204))
(define-fun .def_153 () Bool (= .def_34 .y.34))
(define-fun .def_206 () Bool (and .def_153 .def_205))
(define-fun .def_155 () Bool (= .def_30 .y.32))
(define-fun .def_207 () Bool (and .def_155 .def_206))
(define-fun .def_157 () Bool (= .def_28 .y.31))
(define-fun .def_208 () Bool (and .def_157 .def_207))
(define-fun .def_159 () Bool (= .def_26 .y.30))
(define-fun .def_209 () Bool (and .def_159 .def_208))
(define-fun .def_161 () Bool (= .def_24 .y.29))
(define-fun .def_210 () Bool (and .def_161 .def_209))
(define-fun .def_163 () Bool (= .def_22 .y.28))
(define-fun .def_211 () Bool (and .def_163 .def_210))
(define-fun .def_165 () Bool (= .def_16 .y.25))
(define-fun .def_212 () Bool (and .def_165 .def_211))
(define-fun .def_57 () Bool (= .def_12 .y.23))
(define-fun .def_213 () Bool (and .def_57 .def_212))
(define-fun .def_168 () Bool (= .def_10 .y.22))
(define-fun .def_214 () Bool (and .def_168 .def_213))
(define-fun .def_170 () Bool (= .def_8 .y.21))
(define-fun .def_215 () Bool (and .def_170 .def_214))
(define-fun .def_192 () Bool (not .def_53))
(define-fun .def_216 () Bool (and .def_192 .def_215))
(define-fun .def_194 () Int (* (- 1) .y.26))
(define-fun .def_195 () Int (+ .def_18 .def_194))
(define-fun .def_196 () Bool (= .def_195 (- 1)))
(define-fun .def_217 () Bool (and .def_196 .def_216))
(define-fun .def_172 () Int (* (- 1) .y.33))
(define-fun .def_173 () Int (+ .def_32 .def_172))
(define-fun .def_174 () Bool (= .def_173 (- 1)))
(define-fun .def_218 () Bool (and .def_174 .def_217))
(define-fun .def_237 () Bool (or .def_218 .def_236))
(define-fun .def_200 () Bool (or .def_45 .def_46))
(define-fun .def_198 () Bool (= .def_32 .y.33))
(define-fun .def_180 () Bool (and .loc.35 .def_42))
(define-fun .def_181 () Bool (and .def_55 .def_180))
(define-fun .def_182 () Bool (and .def_153 .def_181))
(define-fun .def_183 () Bool (and .def_155 .def_182))
(define-fun .def_184 () Bool (and .def_157 .def_183))
(define-fun .def_185 () Bool (and .def_159 .def_184))
(define-fun .def_186 () Bool (and .def_161 .def_185))
(define-fun .def_187 () Bool (and .def_163 .def_186))
(define-fun .def_188 () Bool (and .def_165 .def_187))
(define-fun .def_189 () Bool (and .def_57 .def_188))
(define-fun .def_190 () Bool (and .def_168 .def_189))
(define-fun .def_191 () Bool (and .def_170 .def_190))
(define-fun .def_193 () Bool (and .def_191 .def_192))
(define-fun .def_197 () Bool (and .def_193 .def_196))
(define-fun .def_199 () Bool (and .def_197 .def_198))
(define-fun .def_201 () Bool (and .def_199 .def_200))
(define-fun .def_238 () Bool (or .def_201 .def_237))
(define-fun .def_178 () Bool (or .def_41 .def_53))
(define-fun .def_176 () Bool (= .def_18 .y.26))
(define-fun .def_150 () Bool (and .def_47 .def_149))
(define-fun .def_151 () Bool (and .loc.35 .def_150))
(define-fun .def_152 () Bool (and .def_55 .def_151))
(define-fun .def_154 () Bool (and .def_152 .def_153))
(define-fun .def_156 () Bool (and .def_154 .def_155))
(define-fun .def_158 () Bool (and .def_156 .def_157))
(define-fun .def_160 () Bool (and .def_158 .def_159))
(define-fun .def_162 () Bool (and .def_160 .def_161))
(define-fun .def_164 () Bool (and .def_162 .def_163))
(define-fun .def_166 () Bool (and .def_164 .def_165))
(define-fun .def_167 () Bool (and .def_57 .def_166))
(define-fun .def_169 () Bool (and .def_167 .def_168))
(define-fun .def_171 () Bool (and .def_169 .def_170))
(define-fun .def_175 () Bool (and .def_171 .def_174))
(define-fun .def_177 () Bool (and .def_175 .def_176))
(define-fun .def_179 () Bool (and .def_177 .def_178))
(define-fun .def_239 () Bool (or .def_179 .def_238))
(define-fun .def_240 () Bool (and .def_36 .def_239))
(define-fun .def_137 () Bool (and .def_97 .def_136))
(define-fun .def_104 () Int (select .def_14 .def_12))
(define-fun .def_105 () Bool (= .def_104 0))
(define-fun .def_138 () Bool (and .def_105 .def_137))
(define-fun .def_100 () Int (select .def_22 .def_20))
(define-fun .def_101 () Bool (= .def_100 0))
(define-fun .def_102 () Bool (not .def_101))
(define-fun .def_148 () Bool (and .def_102 .def_138))
(define-fun .def_241 () Bool (or .def_148 .def_240))
(define-fun .def_146 () Bool (and .def_101 .def_137))
(define-fun .def_106 () Bool (not .def_105))
(define-fun .def_147 () Bool (and .def_106 .def_146))
(define-fun .def_242 () Bool (or .def_147 .def_241))
(define-fun .def_142 () Bool (= .def_8 .def_16))
(define-fun .def_143 () Bool (not .def_142))
(define-fun .def_140 () Bool (= .def_14 .def_22))
(define-fun .def_141 () Bool (not .def_140))
(define-fun .def_144 () Bool (or .def_141 .def_143))
(define-fun .def_139 () Bool (and .def_101 .def_138))
(define-fun .def_145 () Bool (and .def_139 .def_144))
(define-fun .def_243 () Bool (or .def_145 .def_242))
(define-fun .def_132 () Int (* (- 1) .y.31))
(define-fun .def_133 () Int (+ .def_20 .def_132))
(define-fun .def_134 () Bool (= .def_133 (- 1)))
(define-fun .def_130 () Bool (= .y.29 .def_100))
(define-fun .def_126 () Int (* (- 1) .y.23))
(define-fun .def_127 () Int (+ .def_12 .def_126))
(define-fun .def_128 () Bool (= .def_127 (- 1)))
(define-fun .def_124 () Bool (= .y.21 .def_104))
(define-fun .def_122 () Bool (= .def_10 .y.26))
(define-fun .def_120 () Bool (= .def_18 .y.33))
(define-fun .def_118 () Bool (= .def_8 .y.22))
(define-fun .def_116 () Bool (= .def_10 .y.25))
(define-fun .def_114 () Bool (= .def_14 .y.28))
(define-fun .def_112 () Bool (= .def_16 .y.30))
(define-fun .def_110 () Bool (= .def_18 .y.32))
(define-fun .def_108 () Bool (= .def_22 .y.34))
(define-fun .def_98 () Bool (and .loc.35 .def_55))
(define-fun .def_99 () Bool (and .def_97 .def_98))
(define-fun .def_103 () Bool (and .def_99 .def_102))
(define-fun .def_107 () Bool (and .def_103 .def_106))
(define-fun .def_109 () Bool (and .def_107 .def_108))
(define-fun .def_111 () Bool (and .def_109 .def_110))
(define-fun .def_113 () Bool (and .def_111 .def_112))
(define-fun .def_115 () Bool (and .def_113 .def_114))
(define-fun .def_117 () Bool (and .def_115 .def_116))
(define-fun .def_119 () Bool (and .def_117 .def_118))
(define-fun .def_121 () Bool (and .def_119 .def_120))
(define-fun .def_123 () Bool (and .def_121 .def_122))
(define-fun .def_125 () Bool (and .def_123 .def_124))
(define-fun .def_129 () Bool (and .def_125 .def_128))
(define-fun .def_131 () Bool (and .def_129 .def_130))
(define-fun .def_135 () Bool (and .def_131 .def_134))
(define-fun .def_244 () Bool (or .def_135 .def_243))
(define-fun .def_84 () Bool (and .def_48 .def_83))
(define-fun .def_85 () Bool (and .def_41 .def_84))
(define-fun .def_86 () Bool (and .def_36 .def_85))
(define-fun .def_87 () Bool (and .def_51 .def_86))
(define-fun .def_88 () Bool (and .def_55 .def_87))
(define-fun .def_89 () Bool (and .def_57 .def_88))
(define-fun .def_59 () Bool (= .y.28 .def_34))
(define-fun .def_90 () Bool (and .def_59 .def_89))
(define-fun .def_61 () Bool (= .y.27 .def_28))
(define-fun .def_91 () Bool (and .def_61 .def_90))
(define-fun .def_63 () Bool (= .y.26 .def_30))
(define-fun .def_92 () Bool (and .def_63 .def_91))
(define-fun .def_65 () Bool (= .y.24 .def_22))
(define-fun .def_93 () Bool (and .def_65 .def_92))
(define-fun .def_67 () Bool (= .y.22 .def_16))
(define-fun .def_94 () Bool (and .def_67 .def_93))
(define-fun .def_73 () Int (* (- 1) .def_10))
(define-fun .def_74 () Int (+ .y.21 .def_73))
(define-fun .def_75 () Bool (= .def_74 1))
(define-fun .def_95 () Bool (and .def_75 .def_94))
(define-fun .def_79 () Int (* (- 1) .def_26))
(define-fun .def_80 () Int (+ .y.25 .def_79))
(define-fun .def_81 () Bool (= .def_80 1))
(define-fun .def_96 () Bool (and .def_81 .def_95))
(define-fun .def_245 () Bool (or .def_96 .def_244))
(define-fun .def_49 () Bool (and .def_42 .def_48))
(define-fun .def_50 () Bool (and .def_36 .def_49))
(define-fun .def_52 () Bool (and .def_50 .def_51))
(define-fun .def_54 () Bool (and .def_52 .def_53))
(define-fun .def_56 () Bool (and .def_54 .def_55))
(define-fun .def_58 () Bool (and .def_56 .def_57))
(define-fun .def_60 () Bool (and .def_58 .def_59))
(define-fun .def_62 () Bool (and .def_60 .def_61))
(define-fun .def_64 () Bool (and .def_62 .def_63))
(define-fun .def_66 () Bool (and .def_64 .def_65))
(define-fun .def_68 () Bool (and .def_66 .def_67))
(define-fun .def_76 () Bool (and .def_68 .def_75))
(define-fun .def_82 () Bool (and .def_76 .def_81))
(define-fun .def_246 () Bool (or .def_82 .def_245))
(define-fun .def_248 () Bool (! (and .def_246 .def_247) :trans true))
(define-fun .def_266 () Bool (and .def_38 .def_97))
(define-fun .def_268 () Bool (! (not .def_266) :invar-property 0))
(assert true)
